9223372036854775807 9223372036854775807 9223372036854775807 9223372036854775807 9223372036854775807 9223372036854775807 9223372036854775807 9223372036854775807 9223372036854775807 9223372036854775807 9223372036854775807 9223372036854775807 9223372036854775807 9223372036854775807 9223372036854775807 9223372036854775807 9223372036854775807 9223372036854775807 9223372036854775807 9223372036854775807 9223372036854775807 9223372036854775807 9223372036854775807 9223372036854775807 9223372036854775807 9223372036854775807 9223372036854775807 9223372036854775807 9223372036854775807 9223372036854775807 9223372036854775807 9223372036854775807 9223372036854775807 9223372036854775807 9223372036854775807 9223372036854775807 9223372036854775807 9223372036854775807 9223372036854775807 9223372036854775807 9223372036854775807 9223372036854775807 9223372036854775807 9223372036854775807 9223372036854775807 9223372036854775807 9223372036854775807 9223372036854775807 9223372036854775807 9223372036854775807 9223372036854775807 9223372036854775807 9223372036854775807 9223372036854775807 9223372036854775807 9223372036854775807 9223372036854775807 9223372036854775807 9223372036854775807 9223372036854775807 9223372036854775807 9223372036854775807 9223372036854775807 9223372036854775807 9223372036854775807 9223372036854775807 9223372036854775807 9223372036854775807 9223372036854775807 9223372036854775807 9223372036854775807 9223372036854775807 9223372036854775807 9223372036854775807 9223372036854775807 9223372036854775807 9223372036854775807 9223372036854775807 9223372036854775807 9223372036854775807 9223372036854775807 9223372036854775807 9223372036854775807 9223372036854775807 9223372036854775807 9223372036854775807 9223372036854775807 9223372036854775807 9223372036854775807 9223372036854775807 9223372036854775807 9223372036854775807 9223372036854775807 9223372036854775807 9223372036854775807 9223372036854775807 9223372036854775807 9223372036854775807 9223372036854775807 9223372036854775807 9223372036854775807 9223372036854775807 9223372036854775807 9223372036854775807 9223372036854775807 9223372036854775807 9223372036854775807 9223372036854775807 9223372036854775807 9223372036854775807 9223372036854775807 9223372036854775807 9223372036854775807 9223372036854775807 9223372036854775807 9223372036854775807 9223372036854775807 9223372036854775807 9223372036854775807 9223372036854775807 9223372036854775807 9223372036854775807 9223372036854775807 9223372036854775807 9223372036854775807 9223372036854775807 9223372036854775807 9223372036854775807 9223372036854775807 9223372036854775807 9223372036854775807 9223372036854775807 9223372036854775807 9223372036854775807 9223372036854775807 9223372036854775807 9223372036854775807 9223372036854775807 9223372036854775807 9223372036854775807 9223372036854775807 9223372036854775807 9223372036854775807 9223372036854775807 9223372036854775807 9223372036854775807 9223372036854775807 9223372036854775807 9223372036854775807 9223372036854775807 9223372036854775807 9223372036854775807 9223372036854775807 9223372036854775807 9223372036854775807 9223372036854775807 9223372036854775807 9223372036854775807 9223372036854775807 9223372036854775807 9223372036854775807 9223372036854775807 9223372036854775807 9223372036854775807 9223372036854775807 9223372036854775807 9223372036854775807 9223372036854775807 9223372036854775807 9223372036854775807 9223372036854775807 9223372036854775807 9223372036854775807 9223372036854775807 9223372036854775807 9223372036854775807 9223372036854775807 9223372036854775807 9223372036854775807 9223372036854775807 9223372036854775807 9223372036854775807 9223372036854775807 9223372036854775807 9223372036854775807 9223372036854775807 9223372036854775807 9223372036854775807 9223372036854775807 9223372036854775807 9223372036854775807 9223372036854775807 9223372036854775807 9223372036854775807 9223372036854775807 9223372036854775807 9223372036854775807 9223372036854775807 9223372036854775807 9223372036854775807 9223372036854775807 9223372036854775807 9223372036854775807 9223372036854775807 9223372036854775807 9223372036854775807 9223372036854775807 9223372036854775807 9223372036854775807 9223372036854775807 9223372036854775807 9223372036854775807 9223372036854775807 9223372036854775807 9223372036854775807 9223372036854775807 9223372036854775807 9223372036854775807 9223372036854775807 9223372036854775807 9223372036854775807 9223372036854775807 9223372036854775807 9223372036854775807 9223372036854775807 9223372036854775807 9223372036854775807 9223372036854775807 9223372036854775807 9223372036854775807 9223372036854775807 9223372036854775807 9223372036854775807 9223372036854775807 9223372036854775807 9223372036854775807 9223372036854775807 9223372036854775807 9223372036854775807 9223372036854775807 9223372036854775807 9223372036854775807 9223372036854775807 9223372036854775807 9223372036854775807 9223372036854775807 9223372036854775807 9223372036854775807 9223372036854775807 7006 7003 6984 6979 6979 6969 6968 6950 6944 6942 6919 6902 6892 6887 6878 6877 6860 6854 6841 6839 6837 6828 6827 6814 6802 6797 6780 6760 6756 6745 6744 6737 6736 6729 6723 6717 6716 6707 6705 6678 6673 6664 6653 6648 6629 6625 6613 6604 6594 6590 6580 6580 6564 6558 6552 6550 6546 6542 6538 6527 6527 6471 6470 6446 6440 6432 6427 6421 6418 6415 6410 6407 6401 6392 6389 6380 6373 6361 6359 6359 6356 6354 6351 6341 9223372036854775807 6336 6333 6331 6329 6319 6319 6310 6308 6297 9223372036854775807 9223372036854775807 6268 6267 6267 6263 6257 6252 6240 6232 6224 6224 6215 6213 6204 6202 6201 6200 6198 6197 6193 6192 6189 6188 6187 6184 6183 6181 6178 6174 6173 6168 6167 6164 6162 6161 6156 6154 6153 6149 6147 6142 6142 6135 6133 6122 6122 6120 6118 6118 6114 6112 6111 6109 6108 6106 6095 6077 6060 6058 6058 6058 6057 6056 6045 6044 6038 6038 6036 5999 5998 5979 5979 5977 5977 5975 5932 5931 5931 5930 5930 5929 5928 5911 5911 5907 5906 5906 5905 5902 5900 5899 5896 5895 5894 5894 5893 5868 5834 5834 5832 5832 5829 5826 5818 5794 5794 5791 5786 5786 5770 5770 5762 5757 5757 5757 5755 5747 5745 5745 5742 5740 5735 5735 5732 5731 5725 5725 5711 5711 5709 5698 5697 5687 5687 5687 5686 5679 5679 5678 5672 5671 5668 5667 5639 5638 5635 5611 5608 5602 5573 5573 5565 5562 5554 5550 5550 5540 5539 5473 5469 5468 5463 5463 5462 5461 5456 5454 5454 5454 5443 5441 5440 5439 5437 5437 5435 5435 5435 5433 5432 5431 5431 5431 5431 5430 5430 5430 5429 5428 5428 5427 5427 5427 5426 5426 5425 5424 5424 5424 5424 5423 5423 5422 5422 5422 5421 5418 5416 5415 5411 5410 5409 5409 5409 5408 5408 5408 5408 5407 5407 5405 5405 5405 5405 5405 5405 5405 5405 5405 5405 5404 5404 5404 5404 5400 5400 5400 5400 5400 5400 5400 5400 5400 5400 5392 5392 5392 5392 5389 5387 5387 5385 5385 5385 5381 5381 5381 5381 5381 5380 5380 5380 5380 5380 5380 5380 5370 5370 5370 5365 5365 5363 5363 5360 5360 5360 5360 5356 5356 5355 5349 5313 5313 5282 5272 5272 5269 5264 5264 5264 5264 5264 5264 5264 5264 5264 5264 5264 5264 5264 5264 5264 5262 5262 5262 5262 5262 5257 5257 5257 5257 5257 5257 5257 5257 5257 5257 5257 5256 5256 5256 5256 5256 5256 5256 5256 5256 5256 5256 5256 5256 5256 5256 5256 5255 5255 5255 5255 5255 5255 5255 5255 5255 5255 5255 5255 5255 5255 5255 5255 5255 5255 5255 5255 5255 5255 5255 5255 5255 5255 5255 5255 5255 5255 5255 5255 5255 5255 5255 5255 5255 5255 5255 5255 5255 5255 5255 5255 5255 5255 5255 5255 5255 5255 5255 5255 5255 5255 5255 5255 5255 5255 5255 5255 5255 5255 5255 5255 5255 5255 5255 5255 5255 5255 5255 5255 5255 5255 5255 5255 5255 5255 5255 5255 5255 5255 5255 5255 5255 5255 5255 5255 5255 5255 5255 5255 5255 5255 5255 5255 5255 5255 5255 5255 5255 5255 5255 5255 5255 5255 5255 5255 5255 5255 5255 5255 5255 5255 5255 5255 5255 5255 5255 5255 5255 5255 5255 5255 5255 5255 5255 5255 5255 5255 5255 5255 5255 5255 5255 5255 5255 5255 5255 5255 5255 5255 5255 5255 5255 5255 5255 5255 5255 5255 5255 5255 5255 5255 5255 5255 5255 5255 5255 5255 5255 5255 5255 5255 5255 5255 5255 5255 5255 5255 5255 5255 5255 5255 5255 5255 5255 5255 5255 5255 5255 5255 5255 5255 5255 5255 5255 5255 5255 5255 5255 5255 5255 5255 5255 5255 5255 5255 5255 5255 5255 5255 5255 5255 5255 5255 5255 5255 5255 5255 5255 5255 5255 5255 5255 5255 5255 5255 5255 5255 5255 5255 5255 5255 5255 5255 5255 5255 5255 5255 5255 5255 5255 5255 5255 5255 5255 5255 5255 5255 5255 5255 5255 5255 5255 5255 5255 5255 5255 5255 5255 5255 5255 5255 5255 5255 5255 5255 5255 5255 5255 5255 5255 5255 5255 5255 5255 5255 5255 5255 5255 5255 5255 5255 5255 5255 5255 5255 5255 5255 5255 5255 5255 5255 5255 5255 5255 5255 5255 5255 5255 5255 5255 5255 5255 5255 5255 5255 5255 5255 5255 5255 5255 5255 5255 5255 5255 5255 5255 5255 5255 5255 5255 5255 5255 5255 5255 5255 5255 5255 5255 5255 5255 5255 5255 5255 5255 5255 5255 5255 5255 5255 5255 5255 5255 5255 5255 5255 5255 5255 5255 5255 5255 5255 5255 5255 5255 5255 5255 5255 5255 5255 5255 5255 5255 5255 5255 5255 5255 5255 5255 5255 5255 5255 5255 5255 5255 5255 5255 5255 5255 5255 5255 5255 5255 5255 5255 5255 5255 5255 5255 5255 5255 5255 5255 5255 5255 5255 5255 5255 5255 5255 5255 5255 5255 5255 5255 5255 5255 5255 5255 5255 5255 5255 5255 5255 5255 5255 5255 5255 5255 5255 5255 5255 5255 5255 5255 5255 5255 5255 5255 5255 5255 5255 5255 5255 5255 5255 5255 5255 5255 5255 5255 5255 5255 5255 5255 5255 5255 5255 5255 5255 5255 5255 5255 5255 5255 5255 5255 5255 5255 5255 5255 5255 5255 5255 5255 5255 5255 5255 5255 5255 5255 5255 5255 5255 5255 5255 5255 5255 5255 5255 5255 5255 5255 5255 5255 5255 5255 5255 5255 5255 5255 5255 5255 5255 5255 5255 5255 5255 5255 5255 5255 5255 5255 5255 5255 5255 5255 5255 5255 5255 5255 5255 5255 5255 5255 5255 5255 5255 5255 5255 5255 5255 5255 5255 5255 5255 5255 5255 5255 5255 5255 5255 5255 5255 5255 5255 5255 5255 5255 5255 5255 5255 5255 5255 5255 5255 5255 5255 5255 5255 5255 5255 5255 5255 5255 5255 5255 5255 5255 5255 5255 5255 5255 5255 5255 5255 5255 5255 5255 5255 5255 5255 5255 5255 5255 5255 5255 5255 5255 5255 5255 5255 5255 5255 5255 5255 5255 5255 5255 5255 5255 5255 5255 5255 5255 5255 5255 5255 5255 5255 5255 5255 5255 5255 5255 5255 5255 5255 5255 5255 5255 5255 5255 5255 5255 5255 5255 5255 5255 5255 5255 5255 5255 5255 5255 5255 5255 5255 5255 5255 5255 5255 5255 5255 5255 5255 5255 5255 5255 5255 5255 5255 5255 5255 5255 5255 5255 5255 5255 5255 5255 5255 5255 5255 5255 5255 5255 5255 5255 5255 5255 5255 5255 5255 5255 5255 5255 5255 5255 5255 5255 5255 5255 5255 5255 5255 5255 5255 5255 5255 5255 5255 5255 5255 5255 5255 5255 5255 5255 5255 5255 5255 5255 5255 5255 5255 5255 5255 5255 5255 5255 5255 5255 5255 5255 5255 5255 5255 5255 5255 5255 5255 5255 5255 5255 5255 5255 5255 5255 5255 5255 5255 5255 5255 5255 5255 5255 5255 5255 5255 5255 5255 5255 5255 5255 5255 5255 5255 5255 5255 5255 5255 5255 5255 5255 5255 5255 5255 5255 5255 5255 5255 5255 5255 5255 5255 5255 5255 5255 5255 5255 5255 5255 5255 5255 5255 5255 5255 5255 5255 5255 5255 5255 5255 5255 5255 5255 5255 5255 5255 5255 5255 5255 5255 5255 5255 5255 5255 5255 5255 5255 5255 5255 5255 5255 5255 5255 5255 5255 5255 5255 5255 5255 5255 5255 5255 5255 5255 5255 5255 5255 5255 5255 5255 5255 5255 5255 5255 5255 5255 5255 5255 5255 5255 5255 5255 5255 5255 5255 5255 5255 5255 5255 5255 5255 5255 5255 5255 5255 5255 5255 5255 5255 5255 5255 5255 5255 5255 5255 5255 5255 5255 5255 5255 5255 5255 5255 5255 5255 5255 5255 5255 5255 5255 5255 5255 5255 5255 5255 5255 5255 5255 5255 5255 5255 5255 5255 5255 5255 5255 5255 5255 5255 5255 5255 5255 5255 5255 5255 5255 5255 5255 5255 5255 5255 5255 5255 5255 5255 5255 5255 5255 5255 5255 5255 5255 5255 5255 5255 5255 5255 5255 5255 5255 5255 5255 5255 5255 5255 5255 5255 5255 5255 5255 5255 5255 5255 5255 5255 5255 5255 5255 5255 5255 5255 5255 5255 5255 5255 5255 5255 5255 5255 5255 5255 5255 5255 5255 5255 5255 5255 5255 5255 5255 5255 5255 5255 5255 5255 5255 5255 5255 5255 5255 5255 5255 5255 5255 5255 5255 5255 5255 5255 5255 5255 5255 5255 5255 5255 5255 5255 5255 5255 5255 5255 5255 5255 5255 5255 5255 5255 5255 5255 5255 5255 5255 5255 5255 5255 5255 5255 5255 5255 5255 5255 5255 5255 5255 5255 5255 5255 5255 5255 5255 5255 5255 5255 5255 5255 5255 5255 5255 5255 5255 5255 5255 5255 5255 5255 5255 5255 5255 5255 5255 5255 5255 5255 5255 5255 5255 5255 5255 5255 5255 5255 5255 5255 5255 5255 5255 5255 5255 5255 5255 5255 5255 5255 5255 5255 5255 5255 5255 5255 5255 5255 5255 5255 5255 5255 5255 5255 5255 5255 5255 5255 5255 5255 5255 5255 5255 5255 5255 5255 5255 5255 5255 5255 5255 5255 5255 5255 5255 5255 5255 5255 5255 5255 5255 5255 5255 5255 5255 5255 5255 5255 5255 5255 5255 5255 5255 5255 5255 5255 5255 5255 5255 5255 5255 5255 5255 5255 5255 5255 5255 5255 5255 5255 5255 5255 5255 5255 5255 5255 5255 5255 5255 5255 5255 5255 5255 5255 5255 5255 5255 5255 5255 5255 5255 5255 5255 5255 5255 5255 5255 5255 5255 5255 5255 5255 5255 5255 5255 5255 5255 5255 5255 5255 5255 5255 5255 5255 5255 5255 5255 5255 5255 5255 5255 5255 5255 5255 5255 5255 5255 5255 5255 5255 5255 5255 5255 5255 5255 5255 5255 5255 5255 5255 5255 5255 5255 5255 5255 5255 5255 5255 5255 5255 5255 5255 5255 5255 5255 5255 5255 5255 5255 5255 5255 5255 5255 5255 5255 5255 5255 5255 5255 5255 5255 5255 5255 5255 5255 5255 5255 5255 5255 5255 5255 5255 5255 5255 5255 5255 5255 5255 5255 5255 5255 5255 5255 5255 5255 5255 5255 5255 5255 5255 5255 5255 5255 5255 5255 5255 5255 5255 5255 5255 5255 5255 5255 5255 5255 5255 5255 5255 5255 5255 5255 5255 5255 5255 5255 5255 5255 5255 5255 5255 5255 5255 5255 5255 5255 5255 5255 5255 5255 5255 5255 5255 5255 5255 5255 5255 5255 5255 5255 5255 5255 5255 5255 5255 5255 5255 5255 5255 5255 5255 5255 5255 5255 5255 5255 5255 5255 5255 5255 5255 5255 5255 5255 
0 0 0 0 0 0 0 0 0 0 0 0 0 0 0 0 0 0 0 0 0 0 0 0 0 0 0 0 0 0 0 0 0 0 0 0 0 0 0 0 0 0 0 0 0 0 0 0 0 0 0 0 0 0 0 0 0 0 0 0 0 0 0 0 0 0 0 0 0 0 0 0 0 0 0 0 0 0 0 0 0 0 0 0 0 0 0 0 0 0 0 0 0 0 0 0 0 0 0 0 0 0 0 0 0 0 0 0 0 0 0 0 0 0 0 0 0 0 0 0 0 0 0 0 0 0 0 0 0 0 0 0 0 0 0 0 0 0 0 0 0 0 0 0 0 0 0 0 0 0 0 0 0 0 0 0 0 0 0 0 0 0 0 0 0 0 0 0 0 0 0 0 0 0 0 0 0 0 0 0 0 0 0 0 0 0 0 0 0 0 0 0 0 0 0 0 0 0 0 0 0 0 0 0 0 0 0 0 0 0 0 0 0 0 0 0 0 0 0 0 0 0 0 0 0 0 0 0 0 0 0 0 0 0 0 0 0 0 0 0 0 0 0 0 0 0 0 0 0 7031 7030 7031 7031 7000 6984 6979 6975 6967 6958 6951 6942 6929 6904 6896 6891 6883 6877 6874 6864 6851 6841 6838 6833 6826 6818 6809 6799 6789 6775 6762 6753 6744 6741 6735 6730 6726 6721 6717 6712 6707 6700 6685 6665 6659 6651 6639 6624 6614 6608 6602 6594 6588 6583 6577 6563 6556 6551 6549 6545 6540 6536 6531 6522 6491 6463 6440 6431 6427 6423 6417 6414 6411 6406 6405 6400 6392 6378 6373 6369 6360 6358 6358 6341 0 6336 6335 6332 6330 6322 6319 6310 6309 6297 0 0 6273 6268 6268 6268 6264 6259 6256 6239 6232 6231 6231 6224 6215 6206 6203 6203 6201 6200 6198 6197 6195 6192 6190 6189 6186 6185 6183 6180 6178 6175 6173 6169 6166 6165 6161 6161 6159 6155 6153 6151 6147 6145 6141 6134 6133 6132 6121 6120 6119 6117 6115 6113 6111 6108 6107 6105 6105 6093 6072 6059 6058 6057 6057 6056 6054 6044 6039 6037 6036 6034 5998 5990 5978 5977 5977 5975 5975 5970 5931 5930 5929 5929 5928 5928 5925 5910 5908 5905 5905 5904 5901 5899 5895 5895 5895 5894 5893 5893 5883 5852 5833 5831 5831 5829 5827 5821 5793 5793 5791 5783 5777 5773 5764 5761 5756 5756 5754 5754 5750 5744 5741 5740 5739 5736 5735 5733 5730 5724 5717 5714 5709 5706 5698 5697 5693 5686 5686 5685 5680 5677 5671 5670 5670 5669 5666 5652 5635 5622 5607 5607 5600 5584 5570 5564 5557 5552 5549 5541 5535 5531 5469 5467 5465 5462 5462 5461 5460 5458 5455 5453 5453 5445 5439 5438 5438 5437 5436 5436 5435 5434 5434 5432 5431 5430 5430 5430 5429 5429 5428 5428 5427 5427 5426 5426 5426 5425 5425 5424 5424 5423 5423 5423 5422 5422 5421 5421 5421 5420 5417 5414 5410 5409 5409 5409 5408 5408 5408 5407 5407 5407 5407 5406 5405 5405 5405 5405 5405 5405 5405 5404 5404 5404 5404 5403 5403 5403 5400 5400 5400 5400 5400 5400 5400 5399 5399 5399 5392 5391 5391 5391 5389 5386 5386 5386 5384 5384 5384 5381 5380 5380 5380 5380 5380 5380 5380 5379 5379 5379 5369 5369 5369 5364 5364 5363 5362 5362 5359 5359 5359 5358 5355 5354 5349 5338 5311 5289 5273 5271 5267 5264 5264 5264 5264 5264 5264 5264 5264 5264 5264 5264 5264 5263 5263 5263 5263 5262 5261 5261 5261 5257 5257 5257 5257 5257 5257 5257 5257 5256 5256 5256 5256 5256 5256 5256 5256 5256 5256 5256 5256 5256 5256 5256 5256 5255 5255 5255 5255 5255 5255 5255 5255 5255 5255 5255 5255 5255 5255 5255 5255 5255 5255 5255 5255 5255 5255 5255 5255 5255 5255 5255 5255 5255 5255 5255 5255 5255 5255 5255 5255 5255 5255 5255 5255 5255 5255 5255 5255 5255 5255 5255 5255 5255 5255 5255 5255 5255 5255 5255 5255 5255 5255 5255 5255 5255 5255 5255 5255 5255 5255 5255 5255 5255 5255 5255 5255 5255 5255 5255 5255 5255 5255 5255 5255 5255 5255 5255 5255 5255 5255 5255 5255 5255 5255 5255 5255 5255 5255 5255 5255 5255 5255 5255 5255 5255 5255 5255 5255 5255 5255 5255 5255 5255 5255 5255 5255 5255 5255 5255 5255 5255 5255 5255 5255 5255 5255 5255 5255 5255 5255 5255 5255 5255 5255 5255 5255 5255 5255 5255 5255 5255 5255 5255 5255 5255 5255 5255 5255 5255 5255 5255 5255 5255 5255 5255 5255 5255 5255 5255 5255 5255 5255 5255 5255 5255 5255 5255 5255 5255 5255 5255 5255 5255 5255 5255 5255 5255 5255 5255 5255 5255 5255 5255 5255 5255 5255 5255 5255 5255 5255 5255 5255 5255 5255 5255 5255 5255 5255 5255 5255 5255 5255 5255 5255 5255 5255 5255 5255 5255 5255 5255 5255 5255 5255 5255 5255 5255 5255 5255 5255 5255 5255 5255 5255 5255 5255 5255 5255 5255 5255 5255 5255 5255 5255 5255 5255 5255 5255 5255 5255 5255 5255 5255 5255 5255 5255 5255 5255 5255 5255 5255 5255 5255 5255 5255 5255 5255 5255 5255 5255 5255 5255 5255 5255 5255 5255 5255 5255 5255 5255 5255 5255 5255 5255 5255 5255 5255 5255 5255 5255 5255 5255 5255 5255 5255 5255 5255 5255 5255 5255 5255 5255 5255 5255 5255 5255 5255 5255 5255 5255 5255 5255 5255 5255 5255 5255 5255 5255 5255 5255 5255 5255 5255 5255 5255 5255 5255 5255 5255 5255 5255 5255 5255 5255 5255 5255 5255 5255 5255 5255 5255 5255 5255 5255 5255 5255 5255 5255 5255 5255 5255 5255 5255 5255 5255 5255 5255 5255 5255 5255 5255 5255 5255 5255 5255 5255 5255 5255 5255 5255 5255 5255 5255 5255 5255 5255 5255 5255 5255 5255 5255 5255 5255 5255 5255 5255 5255 5255 5255 5255 5255 5255 5255 5255 5255 5255 5255 5255 5255 5255 5255 5255 5255 5255 5255 5255 5255 5255 5255 5255 5255 5255 5255 5255 5255 5255 5255 5255 5255 5255 5255 5255 5255 5255 5255 5255 5255 5255 5255 5255 5255 5255 5255 5255 5255 5255 5255 5255 5255 5255 5255 5255 5255 5255 5255 5255 5255 5255 5255 5255 5255 5255 5255 5255 5255 5255 5255 5255 5255 5255 5255 5255 5255 5255 5255 5255 5255 5255 5255 5255 5255 5255 5255 5255 5255 5255 5255 5255 5255 5255 5255 5255 5255 5255 5255 5255 5255 5255 5255 5255 5255 5255 5255 5255 5255 5255 5255 5255 5255 5255 5255 5255 5255 5255 5255 5255 5255 5255 5255 5255 5255 5255 5255 5255 5255 5255 5255 5255 5255 5255 5255 5255 5255 5255 5255 5255 5255 5255 5255 5255 5255 5255 5255 5255 5255 5255 5255 5255 5255 5255 5255 5255 5255 5255 5255 5255 5255 5255 5255 5255 5255 5255 5255 5255 5255 5255 5255 5255 5255 5255 5255 5255 5255 5255 5255 5255 5255 5255 5255 5255 5255 5255 5255 5255 5255 5255 5255 5255 5255 5255 5255 5255 5255 5255 5255 5255 5255 5255 5255 5255 5255 5255 5255 5255 5255 5255 5255 5255 5255 5255 5255 5255 5255 5255 5255 5255 5255 5255 5255 5255 5255 5255 5255 5255 5255 5255 5255 5255 5255 5255 5255 5255 5255 5255 5255 5255 5255 5255 5255 5255 5255 5255 5255 5255 5255 5255 5255 5255 5255 5255 5255 5255 5255 5255 5255 5255 5255 5255 5255 5255 5255 5255 5255 5255 5255 5255 5255 5255 5255 5255 5255 5255 5255 5255 5255 5255 5255 5255 5255 5255 5255 5255 5255 5255 5255 5255 5255 5255 5255 5255 5255 5255 5255 5255 5255 5255 5255 5255 5255 5255 5255 5255 5255 5255 5255 5255 5255 5255 5255 5255 5255 5255 5255 5255 5255 5255 5255 5255 5255 5255 5255 5255 5255 5255 5255 5255 5255 5255 5255 5255 5255 5255 5255 5255 5255 5255 5255 5255 5255 5255 5255 5255 5255 5255 5255 5255 5255 5255 5255 5255 5255 5255 5255 5255 5255 5255 5255 5255 5255 5255 5255 5255 5255 5255 5255 5255 5255 5255 5255 5255 5255 5255 5255 5255 5255 5255 5255 5255 5255 5255 5255 5255 5255 5255 5255 5255 5255 5255 5255 5255 5255 5255 5255 5255 5255 5255 5255 5255 5255 5255 5255 5255 5255 5255 5255 5255 5255 5255 5255 5255 5255 5255 5255 5255 5255 5255 5255 5255 5255 5255 5255 5255 5255 5255 5255 5255 5255 5255 5255 5255 5255 5255 5255 5255 5255 5255 5255 5255 5255 5255 5255 5255 5255 5255 5255 5255 5255 5255 5255 5255 5255 5255 5255 5255 5255 5255 5255 5255 5255 5255 5255 5255 5255 5255 5255 5255 5255 5255 5255 5255 5255 5255 5255 5255 5255 5255 5255 5255 5255 5255 5255 5255 5255 5255 5255 5255 5255 5255 5255 5255 5255 5255 5255 5255 5255 5255 5255 5255 5255 5255 5255 5255 5255 5255 5255 5255 5255 5255 5255 5255 5255 5255 5255 5255 5255 5255 5255 5255 5255 5255 5255 5255 5255 5255 5255 5255 5255 5255 5255 5255 5255 5255 5255 5255 5255 5255 5255 5255 5255 5255 5255 5255 5255 5255 5255 5255 5255 5255 5255 5255 5255 5255 5255 5255 5255 5255 5255 5255 5255 5255 5255 5255 5255 5255 5255 5255 5255 5255 5255 5255 5255 5255 5255 5255 5255 5255 5255 5255 5255 5255 5255 5255 5255 5255 5255 5255 5255 5255 5255 5255 5255 5255 5255 5255 5255 5255 5255 5255 5255 5255 5255 5255 5255 5255 5255 5255 5255 5255 5255 5255 5255 5255 5255 5255 5255 5255 5255 5255 5255 5255 5255 5255 5255 5255 5255 5255 5255 5255 5255 5255 5255 5255 5255 5255 5255 5255 5255 5255 5255 5255 5255 5255 5255 5255 5255 5255 5255 5255 5255 5255 5255 5255 5255 5255 5255 5255 5255 5255 5255 5255 5255 5255 5255 5255 5255 5255 5255 5255 5255 5255 5255 5255 5255 5255 5255 5255 5255 5255 5255 5255 5255 5255 5255 5255 5255 5255 5255 5255 5255 5255 5255 5255 5255 5255 5255 5255 5255 5255 5255 5255 5255 5255 5255 5255 5255 5255 5255 5255 5255 5255 5255 5255 5255 5255 5255 5255 5255 5255 5255 5255 5255 5255 5255 5255 5255 5255 5255 5255 5255 5255 5255 5255 5255 5255 5255 5255 5255 5255 5255 5255 5255 5255 5255 5255 5255 5255 5255 5255 5255 5255 5255 5255 5255 5255 5255 5255 5255 5255 5255 5255 5255 5255 5255 5255 5255 5255 5255 5255 5255 5255 5255 5255 5255 5255 5255 5255 5255 5255 5255 5255 5255 5255 5255 5255 5255 5255 5255 5255 5255 5255 5255 5255 5255 5255 5255 5255 5255 5255 5255 5255 5255 5255 5255 5255 5255 5255 5255 5255 5255 5255 5255 5255 5255 5255 5255 5255 5255 5255 5255 5255 5255 5255 5255 5255 5255 5255 5255 5255 5255 5255 5255 5255 5255 5255 5255 5255 5255 5255 5255 5255 5255 5255 5255 5255 5255 5255 5255 5255 5255 5255 5255 5255 5255 5255 5255 5255 5255 5255 5255 5255 5255 5255 5255 5255 5255 5255 5255 5255 5255 5255 5255 5255 5255 5255 5255 5255 5255 5255 5255 5255 5255 5255 5255 5255 5255 5255 5255 5255 5255 5255 5255 5255 5255 5255 5255 5255 5255 5255 5255 5255 5255 5255 5255 5255 5255 5255 5255 5255 5255 5255 5255 5255 5255 5255 5255 5255 5255 5255 5255 5255 5255 5255 5255 5255 5255 5255 5255 5255 5255 5255 5255 5255 5255 5255 5255 5255 5255 5255 5255 5255 5255 5255 5255 5255 5255 5255 